545
537
505
518
585
447
530
665
273
325
230
251
220
227
313
312
291
142
164
157
135
180
271
262
245
242
242
75
83
86
83
77
241
227
259
239
223
66
69
77
67
68
30
34
31
31
30
16
16
17
17
15
188
169
179
178
175
70
73
65
66
61
